\ENCODING=ISO-8859-1
\Problem name: ilog.cplex

Minimize
 obj: 32.82 x0 + 35.04 x1 + 31.35 x2 + 36.64 x3 + 47.15 x4 + 33.99 x5 + 49.5 x6
      + 43 x7 + 46.63 x8 + 41.16 x9 + 153.95 x10 + 21.36 x11 + 19.02 x12
      + 4.42 x13 + 14.8 x14 + 8.01 x15 + 10.89 x16 + 196.56 x17 + 20.23 x18
      + 7.87 x19 + 8.73 x20 + 15.22 x21 + 9.91 x22 + 162.17 x23 + 39.42 x24
      + 9.18 x25 + 8.76 x26 + 19.19 x27 + 10.25 x28 + 136.95 x29 + 26.16 x30
      + 17.64 x31 + 7.37 x32 + 16.16 x33 + 4.35 x34 + 116 x35 + 24.53 x36
      + 4.61 x37 + 16.14 x38 + 15.31 x39 + 4.29 x40 + 15.96 x41 + 127.07 x42
      + 33.34 x43 + 17.9 x44 + 6.37 x45 + 14.23 x46 + 18.23 x47 + 3.29 x48
      + 162.99 x49 + 25.99 x50 + 19.17 x51 + 11.54 x52 + 18.09 x53 + 3.91 x54
      + 12.73 x55 + 159.3 x56 + 23.64 x57 + 19.43 x58 + 5.84 x59 + 3.66 x60
      + 0.21 x61 + 103.77 x62 + 39.05 x63 + 9.26 x64 + 17.78 x65 + 17.28 x66
      + 18.86 x67 + 18.04 x68 + 157.44 x69 + 33.85 x70 + 9.81 x71 + 7.1 x72
      + 3.53 x73 + 2.52 x74 + 7.93 y0 + 10.21 y1 + 14.03 y2 + 17.66 y3
      + 24.53 y4 + 199.89 y5 + 1.05 y6 + 4.12 y7 + 4.67 y8 + 13.5 y9
      + 23.01 y10 + 127.54 y11 + 1.79 y12 + 2.17 y13 + 8.36 y14 + 8.77 y15
      + 14.96 y16 + 22.09 y17 + 119.9 y18 + 0.27 y19 + 3.55 y20 + 5.85 y21
      + 12.83 y22 + 15.41 y23 + 22.33 y24 + 162.54 y25 + 0.39 y26 + 3.86 y27
      + 7.94 y28 + 9.96 y29 + 17.1 y30 + 33.37 y31 + 177.33 y32 + 1.14 y33
      + 5.29 y34 + 5.76 y35 + 9.74 y36 + 18.4 y37 + 35.27 y38 + 153.36 y39
      + 3.94 y40 + 9.02 y41 + 11.28 y42 + 15.83 y43 + 16.29 y44 + 38.9 y45
      + 143.57 y46 + 0.21 y47 + 4.43 y48 + 17.33 y49 + 18.02 y50 + 35.31 y51
      + 185.38 y52 + 4.03 y53 + 6.8 y54 + 8.84 y55 + 16.25 y56 + 16.41 y57
      + 26.92 y58 + 108.35 y59 + 5.64 y60 + 12.22 y61 + 16.76 y62 + 19.15 y63
      + 26.42 y64 + 183.11 y65
Subject To
 N34:     x10 + x11 + x12 + x13 + x14 + x15 + x16  = 19.5592649431993
 N35:     x17 + x18 + x19 + x20 + x21 + x22  = 19.2978434388527
 N36:     x23 + x24 + x25 + x26 + x27 + x28  = 23.8682614914711
 N37:     x29 + x30 + x31 + x32 + x33 + x34  = 30.0806287669711
 N38:     x35 + x36 + x37 + x38 + x39 + x40 + x41  = 16
 N39:     x42 + x43 + x44 + x45 + x46 + x47 + x48  = 17.4336259846758
 N40:     x49 + x50 + x51 + x52 + x53 + x54 + x55  = 22.875
 N41:     x56 + x57 + x58 + x59 + x60 + x61  = 26
 N42:     x62 + x63 + x64 + x65 + x66 + x67 + x68  = 7
 N43:     x69 + x70 + x71 + x72 + x73 + x74  = 27.88537537483
 N45:     x0 + x11 + x25 + x32 + x60 - y0 - y1 - y2 - y3 - y4 - y5  = 0
 N46:     x1 + x13 + x18 + x38 + x51 + x54 + x55 + x61 + x65 + x66 + x71 + x73
          - y6 - y7 - y8 - y9 - y10 - y11  = 0
 N47:     x2 + x24 + x37 + x40 + x53 + x64 - y12 - y13 - y14 - y15 - y16 - y17
          - y18  = 0
 N48:     x3 + x12 + x15 + x16 + x21 + x30 + x45 - y19 - y20 - y21 - y22 - y23
          - y24 - y25  = 0
 N49:     x4 + x28 + x34 + x36 + x52 - y26 - y27 - y28 - y29 - y30 - y31 - y32
           = 0
 N50:     x5 + x43 + x59 - y33 - y34 - y35 - y36 - y37 - y38 - y39  = 0
 N51:     x6 + x20 + x27 + x47 + x50 + x67 + x72 - y40 - y41 - y42 - y43 - y44
          - y45 - y46  = 0
 N52:     x7 + x22 + x26 + x46 + x48 + x57 + x68 + x74 - y47 - y48 - y49 - y50
          - y51 - y52  = 0
 N53:     x8 + x14 + x19 + x31 + x39 + x63 - y53 - y54 - y55 - y56 - y57 - y58
          - y59  = 0
 N54:     x9 + x33 + x41 + x44 + x58 + x70 - y60 - y61 - y62 - y63 - y64 - y65
           = 0
 Y3_1_0:  y0 <= 9
 Y3_1_1:  y1 <= 5
 Y3_1_2:  y2 <= 7
 Y3_1_3:  y3 <= 5
 Y3_1_4:  y4 <= 8
 Y3_1_5:  y5 <= 1000
 Y3_2_0:  y6 <= 6
 Y3_2_1:  y7 <= 6
 Y3_2_2:  y8 <= 5
 Y3_2_3:  y9 <= 7
 Y3_2_4:  y10 <= 8
 Y3_2_5:  y11 <= 1000
 Y3_3_0:  y12 <= 7
 Y3_3_1:  y13 <= 7
 Y3_3_2:  y14 <= 5
 Y3_3_3:  y15 <= 5
 Y3_3_4:  y16 <= 8
 Y3_3_5:  y17 <= 6
 Y3_3_6:  y18 <= 1000
 Y3_4_0:  y19 <= 5
 Y3_4_1:  y20 <= 5
 Y3_4_2:  y21 <= 9
 Y3_4_3:  y22 <= 5
 Y3_4_4:  y23 <= 8
 Y3_4_5:  y24 <= 5
 Y3_4_6:  y25 <= 1000
 Y3_5_0:  y26 <= 5
 Y3_5_1:  y27 <= 8
 Y3_5_2:  y28 <= 8
 Y3_5_3:  y29 <= 5
 Y3_5_4:  y30 <= 6
 Y3_5_5:  y31 <= 7
 Y3_5_6:  y32 <= 1000
 Y3_6_0:  y33 <= 9
 Y3_6_1:  y34 <= 5
 Y3_6_2:  y35 <= 7
 Y3_6_3:  y36 <= 7
 Y3_6_4:  y37 <= 6
 Y3_6_5:  y38 <= 6
 Y3_6_6:  y39 <= 1000
 Y3_7_0:  y40 <= 7
 Y3_7_1:  y41 <= 6
 Y3_7_2:  y42 <= 8
 Y3_7_3:  y43 <= 9
 Y3_7_4:  y44 <= 5
 Y3_7_5:  y45 <= 8
 Y3_7_6:  y46 <= 1000
 Y3_8_0:  y47 <= 5
 Y3_8_1:  y48 <= 6
 Y3_8_2:  y49 <= 6
 Y3_8_3:  y50 <= 9
 Y3_8_4:  y51 <= 9
 Y3_8_5:  y52 <= 1000
 Y3_9_0:  y53 <= 5
 Y3_9_1:  y54 <= 7
 Y3_9_2:  y55 <= 5
 Y3_9_3:  y56 <= 6
 Y3_9_4:  y57 <= 7
 Y3_9_5:  y58 <= 6
 Y3_9_6:  y59 <= 1000
 Y3_10_0: y60 <= 6
 Y3_10_1: y61 <= 7
 Y3_10_2: y62 <= 5
 Y3_10_3: y63 <= 5
 Y3_10_4: y64 <= 7
 Y3_10_5: y65 <= 1000
Bounds
 0 <= x0 <= 1000
 0 <= x1 <= 1000
 0 <= x2 <= 1000
 0 <= x3 <= 1000
 0 <= x4 <= 1000
 0 <= x5 <= 1000
 0 <= x6 <= 1000
 0 <= x7 <= 1000
 0 <= x8 <= 1000
 0 <= x9 <= 1000
 0 <= x10 <= 1000
 0 <= x11 <= 8
 0 <= x12 <= 7
 0 <= x13 <= 7
 0 <= x14 <= 7
 0 <= x15 <= 9
 0 <= x16 <= 5
 0 <= x17 <= 1000
 0 <= x18 <= 7
 0 <= x19 <= 7
 0 <= x20 <= 5
 0 <= x21 <= 8
 0 <= x22 <= 9
 0 <= x23 <= 1000
 0 <= x24 <= 6
 0 <= x25 <= 9
 0 <= x26 <= 8
 0 <= x27 <= 7
 0 <= x28 <= 6
 0 <= x29 <= 1000
 0 <= x30 <= 5
 0 <= x31 <= 9
 0 <= x32 <= 9
 0 <= x33 <= 8
 0 <= x34 <= 7
 0 <= x35 <= 1000
 0 <= x36 <= 9
 0 <= x37 <= 7
 0 <= x38 <= 9
 0 <= x39 <= 9
 0 <= x40 <= 7
 0 <= x41 <= 5
 0 <= x42 <= 1000
 0 <= x43 <= 6
 0 <= x44 <= 6
 0 <= x45 <= 5
 0 <= x46 <= 7
 0 <= x47 <= 5
 0 <= x48 <= 6
 0 <= x49 <= 1000
 0 <= x50 <= 9
 0 <= x51 <= 5
 0 <= x52 <= 6
 0 <= x53 <= 9
 0 <= x54 <= 8
 0 <= x55 <= 9
 0 <= x56 <= 1000
 0 <= x57 <= 9
 0 <= x58 <= 5
 0 <= x59 <= 9
 0 <= x60 <= 6
 0 <= x61 <= 6
 0 <= x62 <= 1000
 0 <= x63 <= 7
 0 <= x64 <= 6
 0 <= x65 <= 9
 0 <= x66 <= 9
 0 <= x67 <= 5
 0 <= x68 <= 6
 0 <= x69 <= 1000
 0 <= x70 <= 6
 0 <= x71 <= 7
 0 <= x72 <= 6
 0 <= x73 <= 9
 0 <= x74 <= 8
 0 <= y0 <= 1001
 0 <= y1 <= 1001
 0 <= y2 <= 1001
 0 <= y3 <= 1001
 0 <= y4 <= 1001
 0 <= y5 <= 1001
 0 <= y6 <= 1001
 0 <= y7 <= 1001
 0 <= y8 <= 1001
 0 <= y9 <= 1001
 0 <= y10 <= 1001
 0 <= y11 <= 1001
 0 <= y12 <= 1001
 0 <= y13 <= 1001
 0 <= y14 <= 1001
 0 <= y15 <= 1001
 0 <= y16 <= 1001
 0 <= y17 <= 1001
 0 <= y18 <= 1001
 0 <= y19 <= 1001
 0 <= y20 <= 1001
 0 <= y21 <= 1001
 0 <= y22 <= 1001
 0 <= y23 <= 1001
 0 <= y24 <= 1001
 0 <= y25 <= 1001
 0 <= y26 <= 1001
 0 <= y27 <= 1001
 0 <= y28 <= 1001
 0 <= y29 <= 1001
 0 <= y30 <= 1001
 0 <= y31 <= 1001
 0 <= y32 <= 1001
 0 <= y33 <= 1001
 0 <= y34 <= 1001
 0 <= y35 <= 1001
 0 <= y36 <= 1001
 0 <= y37 <= 1001
 0 <= y38 <= 1001
 0 <= y39 <= 1001
 0 <= y40 <= 1001
 0 <= y41 <= 1001
 0 <= y42 <= 1001
 0 <= y43 <= 1001
 0 <= y44 <= 1001
 0 <= y45 <= 1001
 0 <= y46 <= 1001
 0 <= y47 <= 1001
 0 <= y48 <= 1001
 0 <= y49 <= 1001
 0 <= y50 <= 1001
 0 <= y51 <= 1001
 0 <= y52 <= 1001
 0 <= y53 <= 1001
 0 <= y54 <= 1001
 0 <= y55 <= 1001
 0 <= y56 <= 1001
 0 <= y57 <= 1001
 0 <= y58 <= 1001
 0 <= y59 <= 1001
 0 <= y60 <= 1001
 0 <= y61 <= 1001
 0 <= y62 <= 1001
 0 <= y63 <= 1001
 0 <= y64 <= 1001
 0 <= y65 <= 1001
End
